p cnf 20 34
1 2 0
-1 -2 0
3 4 0
-3 -4 0
5 6 7 0
-5 -6 0
-5 -7 0
-6 -7 0
8 9 0
-8 -9 0
10 11 12 0
-10 -11 0
-10 -12 0
-11 -12 0
13 14 15 0
-13 -14 0
-13 -15 0
-14 -15 0
16 17 18 0
-16 -17 0
-16 -18 0
-17 -18 0
19 20 0
-19 -20 0
-1 -5 0
-3 -8 0
-4 -9 0
-3 -18 0
-5 -13 0
-7 -15 0
-5 -16 0
-6 -17 0
-6 -19 0
-8 -12 0
